(set-logic QF_NRA)
(set-info :source |
From termination analysis of term rewriting.

Submitted by Harald Roman Zankl <Harald.Zankl@uibk.ac.at>

|)
(set-info :smt-lib-version 2.0)
(set-info :category "industrial")
(set-info :status unknown)
(declare-fun x6 () Real)
(declare-fun x13 () Real)
(declare-fun x3 () Real)
(declare-fun x10 () Real)
(declare-fun x0 () Real)
(declare-fun x7 () Real)
(declare-fun x14 () Real)
(declare-fun x4 () Real)
(declare-fun x11 () Real)
(declare-fun x1 () Real)
(declare-fun x8 () Real)
(declare-fun x5 () Real)
(declare-fun x12 () Real)
(declare-fun x2 () Real)
(declare-fun x9 () Real)
(assert (>= x6 0))
(assert (>= x13 0))
(assert (>= x3 0))
(assert (>= x10 0))
(assert (>= x0 0))
(assert (>= x7 0))
(assert (>= x14 0))
(assert (>= x4 0))
(assert (>= x11 0))
(assert (>= x1 0))
(assert (>= x8 0))
(assert (>= x5 0))
(assert (>= x12 0))
(assert (>= x2 0))
(assert (>= x9 0))
(assert (let ((?v_0 (+ x9 (+ (* x11 x9) (* x12 x10)))) (?v_1 (+ x10 (+ (* x13 x9) (* x14 x10))))) (let ((?v_11 (+ x3 (+ (* x5 ?v_0) (* x6 ?v_1)))) (?v_12 (+ x4 (+ (* x7 ?v_0) (* x8 ?v_1))))) (let ((?v_2 (+ x0 (+ (* x1 ?v_11) (* x2 ?v_12)))) (?v_3 (+ (* x11 x11) (* x12 x13))) (?v_4 (+ (* x13 x11) (* x14 x13)))) (let ((?v_23 (+ (* x5 ?v_3) (* x6 ?v_4))) (?v_24 (+ (* x7 ?v_3) (* x8 ?v_4)))) (let ((?v_8 (+ (* x1 ?v_23) (* x2 ?v_24))) (?v_5 (+ (* x11 x12) (* x12 x14))) (?v_6 (+ (* x13 x12) (* x14 x14)))) (let ((?v_31 (+ (* x5 ?v_5) (* x6 ?v_6))) (?v_32 (+ (* x7 ?v_5) (* x8 ?v_6)))) (let ((?v_9 (+ (* x1 ?v_31) (* x2 ?v_32))) (?v_7 (+ x0 (+ (* x1 x3) (* x2 x4)))) (?v_13 (+ x3 (+ (* x5 x3) (* x6 x4)))) (?v_14 (+ x4 (+ (* x7 x3) (* x8 x4))))) (let ((?v_10 (+ x0 (+ (* x1 ?v_13) (* x2 ?v_14)))) (?v_25 (+ (* x5 x5) (* x6 x7))) (?v_26 (+ (* x7 x5) (* x8 x7))) (?v_33 (+ (* x5 x6) (* x6 x8))) (?v_34 (+ (* x7 x6) (* x8 x8)))) (let ((?v_43 (and (and (and (and (> ?v_2 x0) (>= ?v_2 x0)) (and (>= ?v_8 x1) (>= ?v_9 x2))) (and (and (> ?v_2 ?v_7) (>= ?v_2 ?v_7)) (and (>= ?v_8 (+ (* x1 x5) (* x2 x7))) (>= ?v_9 (+ (* x1 x6) (* x2 x8)))))) (and (and (> ?v_2 ?v_10) (>= ?v_2 ?v_10)) (and (>= ?v_8 (+ (* x1 ?v_25) (* x2 ?v_26))) (>= ?v_9 (+ (* x1 ?v_33) (* x2 ?v_34))))))) (?v_15 (+ x3 (+ (* x5 ?v_13) (* x6 ?v_14)))) (?v_16 (+ x4 (+ (* x7 ?v_13) (* x8 ?v_14))))) (let ((?v_17 (+ x9 (+ (* x11 ?v_15) (* x12 ?v_16)))) (?v_18 (+ x10 (+ (* x13 ?v_15) (* x14 ?v_16))))) (let ((?v_21 (+ x9 (+ (* x11 ?v_17) (* x12 ?v_18)))) (?v_22 (+ x10 (+ (* x13 ?v_17) (* x14 ?v_18))))) (let ((?v_20 (+ x9 (+ (* x11 ?v_21) (* x12 ?v_22)))) (?v_19 (+ x3 (+ (* x5 ?v_11) (* x6 ?v_12)))) (?v_27 (+ (* x5 ?v_25) (* x6 ?v_26))) (?v_28 (+ (* x7 ?v_25) (* x8 ?v_26)))) (let ((?v_29 (+ (* x11 ?v_27) (* x12 ?v_28))) (?v_30 (+ (* x13 ?v_27) (* x14 ?v_28)))) (let ((?v_39 (+ (* x11 ?v_29) (* x12 ?v_30))) (?v_40 (+ (* x13 ?v_29) (* x14 ?v_30))) (?v_35 (+ (* x5 ?v_33) (* x6 ?v_34))) (?v_36 (+ (* x7 ?v_33) (* x8 ?v_34)))) (let ((?v_37 (+ (* x11 ?v_35) (* x12 ?v_36))) (?v_38 (+ (* x13 ?v_35) (* x14 ?v_36)))) (let ((?v_41 (+ (* x11 ?v_37) (* x12 ?v_38))) (?v_42 (+ (* x13 ?v_37) (* x14 ?v_38)))) (and (and ?v_43 (and (and (> ?v_19 ?v_20) (and (>= ?v_19 ?v_20) (>= (+ x4 (+ (* x7 ?v_11) (* x8 ?v_12))) (+ x10 (+ (* x13 ?v_21) (* x14 ?v_22)))))) (and (and (and (>= (+ (* x5 ?v_23) (* x6 ?v_24)) (+ (* x11 ?v_39) (* x12 ?v_40))) (>= (+ (* x5 ?v_31) (* x6 ?v_32)) (+ (* x11 ?v_41) (* x12 ?v_42)))) (>= (+ (* x7 ?v_23) (* x8 ?v_24)) (+ (* x13 ?v_39) (* x14 ?v_40)))) (>= (+ (* x7 ?v_31) (* x8 ?v_32)) (+ (* x13 ?v_41) (* x14 ?v_42)))))) ?v_43))))))))))))))))))
(check-sat)
(exit)
